objective value:                           3800031500
t_z1&2.7                                            1 	(obj:0)
t_z1&3.8                                            1 	(obj:0)
t_z1&4.7                                            1 	(obj:0)
t_z1&5.7                                            1 	(obj:0)
t_z1&6.7                                            1 	(obj:0)
t_z1&7.8                                            1 	(obj:0)
t_z1&8.12                                           1 	(obj:0)
t_z1&9.6                                            1 	(obj:0)
t_z2&3.6                                            1 	(obj:0)
t_z2&4.6                                            1 	(obj:0)
t_z2&5.8                                            1 	(obj:0)
t_z2&6.7                                            1 	(obj:0)
t_z2&7.7                                            1 	(obj:0)
t_z2&8.10                                           1 	(obj:0)
t_z2&9.4                                            1 	(obj:0)
t_z3&4.5                                            1 	(obj:0)
t_z3&5.5                                            1 	(obj:0)
t_z3&6.5                                            1 	(obj:0)
t_z3&7.6                                            1 	(obj:0)
t_z3&8.7                                            1 	(obj:0)
t_z3&9.4                                            1 	(obj:0)
t_z4&5.7                                            1 	(obj:0)
t_z4&6.8                                            1 	(obj:0)
t_z4&7.4                                            1 	(obj:0)
t_z4&8.9                                            1 	(obj:0)
t_z4&9.4                                            1 	(obj:0)
t_z5&6.7                                            1 	(obj:0)
t_z5&7.8                                            1 	(obj:0)
t_z5&8.9                                            1 	(obj:0)
t_z5&9.6                                            1 	(obj:0)
t_z6&7.7                                            1 	(obj:0)
t_z6&8.9                                            1 	(obj:0)
t_z6&9.6                                            1 	(obj:0)
t_z7&8.9                                            1 	(obj:0)
t_z7&9.5                                            1 	(obj:0)
t_z8&9.7                                            1 	(obj:0)
t_x3                                             2600 	(obj:2)
t_x4                                             2200 	(obj:2)
t_x5                                             1400 	(obj:2)
t_x6                                             1300 	(obj:2)
t_x7                                             1000 	(obj:2)
t_x8                                              300 	(obj:2)
t_lung                                           3800 	(obj:1000000)
t_y3                                              400 	(obj:1)
t_y4                                              800 	(obj:1)
t_y5                                              400 	(obj:1)
t_y6                                              600 	(obj:1)
t_y9                                              300 	(obj:1)
t_id20                                              1 	(obj:0)
t_x1                                             3100 	(obj:2)
t_x2                                             2600 	(obj:2)
